
;this file is automatically generated: Thu Jan 02 16:54:47 GMT 2020

;declarations generated

(declare-fun oclExcludes ( Int Int) Bool)
(declare-fun Cardinality ( Int) Int)
(declare-fun obj_7d055e75_f8c2_44f0_9b6d_32a9eb7072e9 ( Int) Int)
(declare-fun oclSelect ( Int Bool) Int)
(declare-fun class20_Class20IntAttr3 ( Int) Int)
(declare-fun class20_Class20IntAttr2 ( Int) Int)
(declare-fun type_34ea0054_3504_4832_b8fd_10387a495608_Class20 ( Int) Bool)
(declare-fun Enum0 ( Int) Int)
(declare-fun Enum1 ( Int) Int)
(declare-fun Enum2 ( Int) Int)
(declare-fun class20_Class20BoolAttr0 ( Int) Bool)
(declare-fun class20_Class20BoolAttr1 ( Int) Bool)
(declare-fun container_ ( Int) Int)
(declare-fun oclIncludes ( Int Int) Bool)
(declare-fun ObjAt ( Int Int) Int)

;formula(s) generated
(assert (! (or (and (forall ((v Int)) (=> ( type_34ea0054_3504_4832_b8fd_10387a495608_Class20 v )  ( class20_Class20BoolAttr0 ( obj_7d055e75_f8c2_44f0_9b6d_32a9eb7072e9 v )  ) )) (forall ((v Int)) (=> ( type_34ea0054_3504_4832_b8fd_10387a495608_Class20 v )  ( class20_Class20BoolAttr1 ( obj_7d055e75_f8c2_44f0_9b6d_32a9eb7072e9 v )  ) ))) (and (forall ((v Int)) (=> ( type_34ea0054_3504_4832_b8fd_10387a495608_Class20 v )  (> ( class20_Class20IntAttr2 ( obj_7d055e75_f8c2_44f0_9b6d_32a9eb7072e9 v )  )  8))) (forall ((c0_1 Int)(c0_2 Int)) (=> (and ( type_34ea0054_3504_4832_b8fd_10387a495608_Class20 c0_1 )  ( type_34ea0054_3504_4832_b8fd_10387a495608_Class20 c0_2 ) ) (= ( class20_Class20IntAttr2 ( obj_7d055e75_f8c2_44f0_9b6d_32a9eb7072e9 c0_1 )  )  ( class20_Class20IntAttr3 ( obj_7d055e75_f8c2_44f0_9b6d_32a9eb7072e9 c0_2 )  ) ))))):named l0))
(assert (! (forall ((v Int)) (=> ( type_34ea0054_3504_4832_b8fd_10387a495608_Class20 v )  (< ( class20_Class20IntAttr2 ( obj_7d055e75_f8c2_44f0_9b6d_32a9eb7072e9 v )  )  11))):named l1))
(assert (exists ((o Int)) ( type_34ea0054_3504_4832_b8fd_10387a495608_Class20 ( obj_7d055e75_f8c2_44f0_9b6d_32a9eb7072e9 o )  ) ))

 ;end of formula 